(set-logic QF_S)
(declare-fun var0 () String)
(declare-fun var1 () Int)
(declare-fun var2 () String)
(declare-fun var3 () Int)
(declare-fun var4 () Int)
(declare-fun var5 () String)
(declare-fun var6 () String)
(assert (str.suffixof (str.at var0 var1) (str.substr var2 var3 var4)))
(assert (str.suffixof var5 var6))
(assert (str.in.re (str.replace var0 var2 var6) (re.+ re.allchar)))
(assert (<= (str.len var6) (str.len var6)))
(check-sat)